%chk=reactants.chk
%mem=15GB
%nprocshared=8
# opt=(calcFC,loose) am1=(Input,Print) scrf=(solvent=water)

Title Card Required

0 1
 N                  4.53191500   -0.46396500    1.10749600
 C                  5.51911300   -1.12630900    0.35929800
 O                  6.53382300   -1.60507200    0.91589600
 N                  5.40833800   -1.27871600   -1.04447800
 C                  4.33726000   -0.78417800   -1.77159900
 O                  4.28666000   -0.95796700   -3.00301500
 C                  3.27427100   -0.04586000   -1.00258900
 N                  2.25649700    0.47006300   -1.64344200
 C                  1.29333100    1.14856000   -0.91033900
 C                  0.18847300    1.73238100   -1.58639600
 C                 -0.78882900    2.42104600   -0.89315000
 C                 -1.93462300    3.02444100   -1.61350200
 C                 -0.69033000    2.55414900    0.51559100
 C                 -1.73742900    3.29353400    1.25832700
 C                  0.37616700    1.99306800    1.20185700
 C                  1.38727700    1.27584100    0.51530500
 N                  2.46632500    0.69531300    1.19760200
 C                  3.46861200    0.04311000    0.48146400
 C                  2.50913000    0.80824100    2.64205700
 H                 -3.32695200   -2.10985500   -1.91201800
 H                  6.13314100   -1.76916600   -1.52728900
 H                  0.11885200    1.63021000   -2.68364700
 H                 -1.91328600    4.13886100   -1.50598000
 H                 -2.90056300    2.65387000   -1.18491300
 H                 -1.90969300    2.77408700   -2.70241500
 H                 -1.47809000    3.40068300    2.34011400
 H                 -2.71438000    2.75036000    1.17952300
 H                 -1.87261800    4.31522900    0.82047500
 H                  0.42530600    2.12043800    2.29669600
 H                  3.36031400    0.22590900    3.08013800
 H                  1.55046500    0.40585500    3.07000000
 H                  2.62731900    1.88918600    2.92576000
 C                 -2.53933600   -1.05718200    3.00287400
 N                 -2.81016200   -1.38151900    1.62654400
 C                 -3.88891600   -0.80349300    0.97699500
 C                 -4.34498400   -1.25014600   -0.22760600
 C                 -5.48597600   -0.61689700   -0.92070300
 O                 -6.31764200   -1.29441500   -1.58077700
 N                 -5.63269000    0.74215500   -0.86019900
 C                 -3.74262800   -2.42822800   -0.91490100
 C                 -2.66522200   -3.05288100   -0.10724000
 C                 -2.26054000   -2.55172200    1.07901000
 H                 -1.44904000   -1.22166300    3.21273500
 H                 -3.14320400   -1.70169900    3.69742000
 H                 -2.79151600    0.01929000    3.19422400
 H                 -4.34432600    0.05916700    1.50385600
 H                 -4.54498600   -3.18641600   -1.13500600
 H                 -2.19603000   -3.95527200   -0.52247100
 H                 -1.45875900   -3.01467400    1.68311400
 H                 -4.99097500    1.30687200   -0.36287300
 H                 -6.39419800    1.18019100   -1.31744700

 Method=8 CoreType=1 PeptideFC=0.0114505045 RIJScale=0.5291772086
****
H
PQN=1
NValence=1
F0ss=0.473862957016
ZetaOverlap=1.1880780000
U=-0.3909862986
Beta=-0.227720491774
CoreKO=1.0589197790
KON=0,0,0,1.0589197790
KON=1,0,1,1.0589197790
KON=0,1,1,1.0589197790
KON=2,1,1,1.0589197790
EISol=-0.4188110042
EHeat=0.0830298228
Alpha=1.5252601686
GCore=0.0085277107,1.4001425905,2.2676713595
GCore=0.0003534810,1.4001425905,3.4015070392
GCore=-0.0012733648,0.5600570362,3.9684248791
****
C
PQN=2,2
NValence=4
F0ss=0.4494442496
F0sp=0.4215147623
F0pp=0.3768030831
F2pp=0.1898715146
G1sp=0.2679025821
ZetaOverlap=1.8086650000,1.6851160000
U=-1.9120180828,-1.4557965594
Beta=-0.615140011344,-0.2836784428
DDN=0,1,0.8236736000
DDN=1,1,0.7268015000
CoreKO=1.1124284736
KON=0,0,0,1.1124284736
KON=1,0,1,0.826822333614
KON=0,1,1,1.1124284736
KON=2,1,1,0.7783928119
EISol=-4.38568435425
EHeat=0.2723305520
Alpha=1.4014062429
DipHyp=1.6472524267
GCore=0.000794909101049,1.38386323903,3.05616741934
GCore=0.0031892455,1.40141768771,3.50808283576
GCore=-0.00137735951532,1.38422569907,3.8739385724
GCore=-0.0000875022,1.4001425905,5.0077742521
****
O
PQN=2,2
NValence=6
F0ss=0.574712535936
F0sp=0.525257351139
F0pp=0.4958708974
F2pp=0.2358081713
G1sp=0.440874281309
ZetaOverlap=3.1080320000,2.49727980285
U=-4.11999475293,-2.66638011397
Beta=-1.3134205133,-1.0757546603
DDN=0,1,0.500171327541
DDN=1,1,0.480018453371
CoreKO=0.871841004159
KON=0,0,0,0.873856063317
KON=1,0,1,0.5019543089
KON=0,1,1,0.876277359809
KON=2,1,1,0.557427607822
EISol=-11.6584547951
EHeat=0.0960965514635
Alpha=2.38447761387
DipHyp=1.00162011763
GCore=0.0195887039631,1.4139164318,1.6136077072
GCore=0.00578529185071,1.94487610631,2.72448287882
****
N
PQN=2,2
NValence=5
F0ss=0.4994233321
F0sp=0.465996550202
F0pp=0.448761735291
F2pp=0.2128398429
G1sp=0.3461786452
ZetaOverlap=2.34540396439,2.17291927206
U=-2.6408065231,-2.1008700363
Beta=-0.843488656974,-0.6702586716
DDN=0,1,0.6433247000
DDN=1,1,0.5675528000
CoreKO=0.986635243524
KON=0,0,0,1.0011038171
KON=1,0,1,0.6393175158
KON=0,1,1,1.0011038171
KON=2,1,1,0.6342362236
EISol=-7.4383480104
EHeat=0.1800769640
Alpha=1.5596365784
DipHyp=1.2865753779
GCore=0.0017535850,1.4001425905,2.8345891993
GCore=0.0020106747,1.4001425905,3.9684248791
GCore=-0.0004032044,0.5600570362,4.50505217451
****
