%Mem=2500MB
%nproc=4
%chk=./FH.chk
# AM1 Opt Freq=(scale=0.9532)

Title Card Required

1 1
 C                 -5.33059524   -1.00737727   -0.47157727
 C                 -3.99245306   -0.87957456   -0.64013767
 C                 -3.33798173    0.50663270   -0.58485289
 C                 -4.07604722    1.58993863   -0.24130204
 C                 -5.59008974    1.44252080    0.00053957
 C                 -6.18155309    0.22973584   -0.12968955
 H                 -5.79417256   -1.96680538   -0.56901322
 N                 -3.15982222   -2.06470601   -0.85727991
 N                 -1.91688201    0.66360078   -0.92359859
 H                 -3.60893405    2.54774957   -0.14484749
 C                 -6.43215267    2.67299006    0.38586463
 H                 -7.42955839    2.55206570    0.01781692
 H                 -6.45445577    2.77050904    1.45117802
 H                 -5.99751354    3.55133189   -0.04367519
 C                 -7.70223519    0.08851484    0.06825637
 H                 -8.04102293    0.82543686    0.76615952
 H                 -8.19858606    0.23010108   -0.86902115
 H                 -7.92367441   -0.88811449    0.44516460
 C                 -1.17089556   -0.59567915   -0.73358032
 C                 -1.87498802   -1.96024068   -0.74634910
 C                 -1.32502638    1.71061569   -0.07839642
 C                 -1.01650961   -3.21702461   -0.61350422
 N                  0.37117337   -3.09967619   -0.14524538
 C                  0.94294171   -1.76055917   -0.41064936
 H                  0.93099418   -3.78981843   -0.60383490
 N                  0.11573296   -0.54386954   -0.58925488
 O                 -1.49986555   -4.34670528   -0.88509062
 H                 -0.29553479    1.84028691   -0.33960980
 O                  2.19438068   -1.64819402   -0.48025638
 H                 -1.39867642    1.42313484    0.94962616
 H                 -1.85006146    2.63053819   -0.22999046
 H                  0.56803935    0.34766024   -0.61361857

